8,2,7,3,5,2,6,7,2,5,1,7,10,6,4,8,3,9,9,10;1,1,8,1,4,1,7,4,3,4,5,6,2,7,9,7,6,9,10,9;6,1,7,2,2,2,5,1,10,3,4,3,1,6,9,2,8,9;7,1,3,1,6,2,8,3,4,2,10,5,1,9,9,5,3,8,5,9,2,10;2,1,8,4,6,5,10,4,3,5,1,8,7,9,5,7,4,10;3,2,6,3,2,3,5,3,7,8,9,4,1,10,8,8,4,9,10,10,3,10;1,2,8,5,6,6,5,4,7,7,4,7,10,8,9,8,2,9;9,1,1,5,4,4,5,5,2,6,10,7,9,6,3,7,7,10,6,10,8,10;10,1,3,3,1,4,7,6,4,5,9,3,8,7,6,8,2,8,5,10;10,2,1,3,6,4,7,5,2,4,8,6,4,6,3,6,5,8,9,9;
